(assert (forall ((pkt_0_4_6_0  Int  )(state_group_0_state_0_5_7_0  Int  )(state_group_0_state_1_6_8_0  Int  )) (let ((_n0 state_group_0_state_1_6_8_0 ))
(let ((_n1 state_group_0_state_0_5_7_0 ))
(let ((_n2 true ))
(let ((_n3 (+   _n1   (ite  _n2  1 0) ) ))
(let ((_n4 (ite (=  _n0  0)  _n3   _n1  ) ))
(let ((_n5 2 ))
(let ((_n6 pkt_0_4_6_0 ))
(let ((_n7 (-  _n6 )))
(let ((_n8 (+   _n1   _n7 ) ))
(let ((_n9 (<   _n8   _n5 ) ))
(let ((_n10 false ))
(let ((_n11 (ite  _n9   (ite  _n10  1 0)   _n0  ) ))
(let ((_n12 (<   _n11   (ite  _n2  1 0) ) ))
(let ((_n13 (ite  _n9   _n10   _n12  ) ))
(let ((_n14 (not  _n13 ) ))
(let ((_n15 (or   _n14   _n9 ) ))
(let ((_n16 (ite  _n15   (ite  _n10  1 0)   _n6  ) ))
(let ((_n17 (ite  _n15   (ite  _n10  1 0)   _n1  ) ))
(let ((_n18 (+   _n17   _n16 ) ))
(let ((_n19 3 ))
(let ((_n20 (<   _n19   _n18 ) ))
(let ((_n21 (ite  _n15   _n10   _n20  ) ))
(let ((_n22 (or   _n21   _n15 ) ))
(let ((_n23 999 ))
(let ((_n24 (ite  _n22   (ite  _n10  1 0)   _n23  ) ))
(let ((_n25 (-  _n24 )))
(let ((_n26 1000 ))
(let ((_n27 (ite  _n22   (ite  _n10  1 0)   _n26  ) ))
(let ((_n28 (+   _n27   _n25 ) ))
(let ((_n29 (ite  _n22   (ite  _n10  1 0)   _n28  ) ))
(let ((_n30 (+   _n1   _n29 ) ))
(let ((_n31 (not  _n21 ) ))
(let ((_n32 (or   _n31   _n15 ) ))
(let ((_n33 (not  _n32 ) ))
(let ((_n34 (+   _n1   (ite  _n33  1 0) ) ))
(let ((_n35 (ite (=  (ite  _n21  1 0)  1)  _n34   _n30  ) ))
(let ((_n36 (ite (=  (ite  _n13  1 0)  1)  _n35   _n1  ) ))
(let ((_n37 (ite  _n9   _n0   (ite  _n10  1 0)  ) ))
(let ((_n38 (=   _n37   (ite  _n10  1 0) ) ))
(let ((_n39 (not  _n38 ) ))
(let ((_n40 (and   _n9   _n39 ) ))
(let ((_n41 (not  _n9 ) ))
(let ((_n42 (or   _n40   _n41 ) ))
(let ((_n43 (ite  _n42   (ite  _n10  1 0)   _n5  ) ))
(let ((_n44 (-  _n43 )))
(let ((_n45 (ite  _n42   (ite  _n10  1 0)   _n19  ) ))
(let ((_n46 (+   _n45   _n44 ) ))
(let ((_n47 (ite  _n42   (ite  _n10  1 0)   _n46  ) ))
(let ((_n48 (+   _n1   _n47 ) ))
(let ((_n49 (ite (=  (ite  _n40  1 0)  1)  _n1   _n48  ) ))
(let ((_n50 (ite (=  (ite  _n9  1 0)  1)  _n49   _n36  ) ))
(let ((_n51 (=   _n50   _n4 ) ))
(let ((_n53 (ite (=  _n1  999)  (ite  _n2  1 0)   _n0  ) ))
(let ((_n54 (ite (=  _n0  0)  _n53   _n0  ) ))
(let ((_n55 (ite  _n22   (ite  _n10  1 0)   _n6  ) ))
(let ((_n56 (+   _n55   _n55 ) ))
(let ((_n57 (ite  _n22   (ite  _n10  1 0)   _n56  ) ))
(let ((_n58 (+   _n0   _n57 ) ))
(let ((_n59 (ite  _n32   (ite  _n10  1 0)   _n6  ) ))
(let ((_n60 (-  _n59 )))
(let ((_n61 (+   (ite  _n33  1 0)   _n60 ) ))
(let ((_n62 (ite  _n32   (ite  _n10  1 0)   _n61  ) ))
(let ((_n63 (+   _n0   _n62 ) ))
(let ((_n64 (ite (=  (ite  _n21  1 0)  1)  _n63   _n58  ) ))
(let ((_n65 (ite (=  (ite  _n13  1 0)  1)  _n64   _n0  ) ))
(let ((_n66 (ite (=  (ite  _n9  1 0)  1)  _n0   _n65  ) ))
(let ((_n67 (=   _n66   _n54 ) ))
(let ((_n69 (ite (=  _n6  0)  _n6   (ite  _n10  1 0)  ) ))
(let ((_n70 (ite (=  _n6  0)  _n69   _n6  ) ))
(let ((_n71 (=   _n70   _n6 ) ))
(implies  (and (and (>= state_group_0_state_1_6_8_0 0) (< state_group_0_state_1_6_8_0 1024 ))  (and (and (>= state_group_0_state_0_5_7_0 0) (< state_group_0_state_0_5_7_0 1024 ))  (and (>= pkt_0_4_6_0 0) (< pkt_0_4_6_0 1024 )) ) )   (and  _n51  _n67  _n71 )  )))))))))))))))))))))))))))))))))))))))))))))))))))))))))))))))))))))))))
(check-sat)
(get-model)
(exit)